50 4
80 59 81 14 68 58 109 89 92 99 14 25 59 24 98 66 27 35 24 75 63 83 25 79 47 57 49 33 102 42 13 55 25 67 95 22 37 31 67 78 10 42 38 44 48 81 49 45 110 57
72 65 56 27 67 42 99 72 85 75 39 33 49 41 94 82 26 47 39 80 77 59 23 84 25 59 56 33 105 33 13 81 32 72 76 17 37 17 50 65 7 34 41 38 61 76 44 37 91 75
79 66 54 27 82 63 111 90 81 79 34 31 57 40 86 85 29 42 23 69 70 80 39 98 41 73 72 30 85 29 34 79 7 52 100 29 30 22 77 65 10 44 15 36 57 89 71 38 84 61
64 52 65 34 74 61 107 81 91 86 24 42 69 40 96 84 42 30 35 60 86 73 39 89 52 54 69 59 101 22 14 76 13 49 87 31 17 39 68 60 19 30 27 52 39 89 54 24 90 53
